RT is False
Default write of storage_offers_DA.csv just to have a file (but constraint should be inactive)
Reading model...
...model read.
creating competitive generators file...
...competitive generators recorded.
Loading data...
.. day-ahead data with real-time VRE data read.
Compiling instance...
...instance created.
Creating Offer Mitigation (model will solve as dispatch if TRUE)...
NOTE: storage offers will not be mitigated
...storage offer mitigation file created
Converting model to MPEC...
...converted
NOTE: initial MIP solve with only storage competitive to get feasible solution
Solving...

Welcome to IBM(R) ILOG(R) CPLEX(R) Interactive Optimizer 12.9.0.0
  with Simplex, Mixed Integer & Barrier Optimizers
5725-A06 5725-A29 5724-Y48 5724-Y49 5724-Y54 5724-Y55 5655-Y21
Copyright IBM Corp. 1988, 2019.  All Rights Reserved.

Type 'help' for a list of available commands.
Type 'help' followed by a command name for more
information on commands.

CPLEX> Logfile 'cplex.log' closed.
Logfile 'C:\Users\llavin\Desktop\test826\logs\tmpfub6q3yc.cplex.log' open.
CPLEX> New value for parallel optimization mode: -1
CPLEX> New value for emphasis for MIP optimization: 1
CPLEX> New value for mixed integer optimality gap tolerance: 0.01
CPLEX> New value for integrality tolerance: 1e-12
CPLEX> New value for deterministic time limit in ticks: 75000
CPLEX> Problem 'C:\Users\llavin\Desktop\test826\logs\tmpb588swuy.pyomo.lp' read.
Read time = 0.22 sec. (13.92 ticks)
CPLEX> Problem name         : C:\Users\llavin\Desktop\test826\logs\tmpb588swuy.pyomo.lp
Objective sense      : Maximize
Variables            :   53809  [Nneg: 1,  Box: 22004,  Free: 4464,
                                 Binary: 27340]
Objective nonzeros   :    8978
Linear constraints   :  123253  [Less: 41346,  Greater: 59096,  Equal: 22811]
  Nonzeros           :  293287
  RHS nonzeros       :   67489

Variables            : Min LB: -5000.000        Max UB: 1000000.       
Objective nonzeros   : Min   : 0.05833333       Max   : 833.9167       
Linear constraints   :
  Nonzeros           : Min   : 0.05833333       Max   : 1000000.       
  RHS nonzeros       : Min   : 0.05833333       Max   : 1000000.       
CPLEX> CPXPARAM_Parallel                                -1
CPXPARAM_Emphasis_MIP                            1
CPXPARAM_DetTimeLimit                            75000
CPXPARAM_MIP_Tolerances_MIPGap                   0.01
CPXPARAM_MIP_Tolerances_Integrality              9.9999999999999998e-13
Tried aggregator 4 times.
MIP Presolve eliminated 88658 rows and 18916 columns.
MIP Presolve added 3400 rows and 0 columns.
MIP Presolve modified 24862 coefficients.
Aggregator did 13004 substitutions.
Reduced MIP has 24991 rows, 21335 columns, and 71319 nonzeros.
Reduced MIP has 8421 binaries, 0 generals, 0 SOSs, and 0 indicators.
Presolve time = 0.33 sec. (193.71 ticks)
Probing fixed 378 vars, tightened 4862 bounds.
Probing time = 0.06 sec. (19.79 ticks)
Tried aggregator 2 times.
MIP Presolve eliminated 854 rows and 757 columns.
MIP Presolve modified 3043 coefficients.
Aggregator did 37 substitutions.
Reduced MIP has 24100 rows, 20541 columns, and 68738 nonzeros.
Reduced MIP has 8043 binaries, 0 generals, 0 SOSs, and 0 indicators.
Presolve time = 0.11 sec. (89.55 ticks)
Probing fixed 0 vars, tightened 326 bounds.
Probing time = 0.14 sec. (22.63 ticks)
Clique table members: 43398.
MIP emphasis: integer feasibility.
MIP search method: dynamic search.
Parallel mode: opportunistic, using up to 32 threads.
Root relaxation solution time = 0.38 sec. (590.45 ticks)

        Nodes                                         Cuts/
   Node  Left     Objective  IInf  Best Integer    Best Bound    ItCnt     Gap

      0     0     3275.3307   118                   3275.3307     4895         
      0     0     3275.3307     1                 Flowcuts: 1     4896         
*     0+    0                         3275.3307     3275.3307             0.00%
      0     0        cutoff           3275.3307     3275.3307     4896    0.00%
Elapsed time = 2.25 sec. (1684.74 ticks, tree = 0.01 MB, solutions = 1)

Flow cuts applied:  1

Root node processing (before b&c):
  Real time             =    2.27 sec. (1686.57 ticks)
Parallel b&c, 32 threads:
  Real time             =    0.00 sec. (0.00 ticks)
  Sync time (average)   =    0.00 sec.
  Wait time (average)   =    0.00 sec.
                          ------------
Total (root+branch&cut) =    2.27 sec. (1686.57 ticks)

Solution pool: 1 solution saved.

MIP - Integer optimal solution:  Objective =  3.2753306912e+03
Solution time =    2.28 sec.  Iterations = 4896  Nodes = 0
Deterministic time = 1686.73 ticks  (739.47 ticks/sec)

CPLEX> Incumbent solution written to file 'C:\Users\llavin\Desktop\test826\logs\tmpzh_yr0ni.cplex.sol'.
CPLEX> NOTE: no warmstart specified for MIP iteration, default behavior is true
NOTE: resolving with all competitive generators using storage-only solution to warmstart
Solving...

Welcome to IBM(R) ILOG(R) CPLEX(R) Interactive Optimizer 12.9.0.0
  with Simplex, Mixed Integer & Barrier Optimizers
5725-A06 5725-A29 5724-Y48 5724-Y49 5724-Y54 5724-Y55 5655-Y21
Copyright IBM Corp. 1988, 2019.  All Rights Reserved.

Type 'help' for a list of available commands.
Type 'help' followed by a command name for more
information on commands.

CPLEX> Logfile 'cplex.log' closed.
Logfile 'C:\Users\llavin\Desktop\test826\logs\tmpd4beghno.cplex.log' open.
CPLEX> New value for parallel optimization mode: -1
CPLEX> New value for emphasis for MIP optimization: 1
CPLEX> New value for mixed integer optimality gap tolerance: 0.01
CPLEX> New value for integrality tolerance: 1e-12
CPLEX> New value for deterministic time limit in ticks: 75000
CPLEX> Problem 'C:\Users\llavin\Desktop\test826\logs\tmp1_p0695m.pyomo.lp' read.
Read time = 0.25 sec. (13.94 ticks)
CPLEX> MIP start file 'C:\Users\llavin\Desktop\test826\logs\tmpqorveb9q.cplex.mst' read.
CPLEX> Problem name         : C:\Users\llavin\Desktop\test826\logs\tmp1_p0695m.pyomo.lp
Objective sense      : Maximize
Variables            :   54529  [Nneg: 1,  Box: 22724,  Free: 4464,
                                 Binary: 27340]
Objective nonzeros   :    9674
Linear constraints   :  123253  [Less: 41346,  Greater: 59096,  Equal: 22811]
  Nonzeros           :  293287
  RHS nonzeros       :   67489

Variables            : Min LB: -5000.000        Max UB: 1000000.       
Objective nonzeros   : Min   : 0.05833333       Max   : 787.5750       
Linear constraints   :
  Nonzeros           : Min   : 0.05833333       Max   : 1000000.       
  RHS nonzeros       : Min   : 0.05833333       Max   : 1000000.       
CPLEX> CPXPARAM_Parallel                                -1
CPXPARAM_Emphasis_MIP                            1
CPXPARAM_DetTimeLimit                            75000
CPXPARAM_MIP_Tolerances_MIPGap                   0.01
CPXPARAM_MIP_Tolerances_Integrality              9.9999999999999998e-13
Warning:  No solution found from 1 MIP starts.
Retaining values of one MIP start for possible repair.
Tried aggregator 4 times.
MIP Presolve eliminated 88658 rows and 19636 columns.
MIP Presolve added 3400 rows and 0 columns.
MIP Presolve modified 24862 coefficients.
Aggregator did 13004 substitutions.
Reduced MIP has 24991 rows, 21335 columns, and 71319 nonzeros.
Reduced MIP has 8421 binaries, 0 generals, 0 SOSs, and 0 indicators.
Presolve time = 0.33 sec. (194.13 ticks)
Probing fixed 378 vars, tightened 4862 bounds.
Probing time = 0.08 sec. (19.79 ticks)
Tried aggregator 2 times.
MIP Presolve eliminated 854 rows and 757 columns.
MIP Presolve modified 3043 coefficients.
Aggregator did 37 substitutions.
Reduced MIP has 24100 rows, 20541 columns, and 68738 nonzeros.
Reduced MIP has 8043 binaries, 0 generals, 0 SOSs, and 0 indicators.
Presolve time = 0.11 sec. (89.55 ticks)
Probing fixed 0 vars, tightened 326 bounds.
Probing time = 0.14 sec. (22.63 ticks)
Clique table members: 43398.
MIP emphasis: integer feasibility.
MIP search method: dynamic search.
Parallel mode: opportunistic, using up to 32 threads.
Root relaxation solution time = 0.44 sec. (629.38 ticks)

        Nodes                                         Cuts/
   Node  Left     Objective  IInf  Best Integer    Best Bound    ItCnt     Gap

      0     0   144554.4085   260                 144554.4085     5969         
      0     0   142435.7498   172                   Cuts: 129     6116         
      0     0   141818.4770   174                    Cuts: 50     6181         
      0     0   141504.3753   165                    Cuts: 40     6215         
Repair heuristic found nothing.
      0    29    infeasible                           Cuts: 8     7167         
Elapsed time = 3.95 sec. (1825.21 ticks, tree = 0.02 MB, solutions = 0)
    595   108   104237.5332    83                 137758.7555     8798         
   1078   925   105670.3444    94                 137758.7555    19671         
   1595  1101    23048.5579   106                 137758.7555    25530         
   2257  1526   -31119.9033    46                 137758.7555    45162         
   3005  1815    infeasible                       127584.0779    50437         
   3766  2201     3419.9783    39                 127584.0779    60983         
   4504  2610     4452.3271    58                 126670.0115    71316         
   5255  3036     1282.0288    38                 126670.0115    80878         
   5901  3385   -18848.9935    34                 125331.5698    89218         
   8307  5249  -249152.9686    48                 115689.7427   179319         
Elapsed time = 20.78 sec. (4927.77 ticks, tree = 48.08 MB, solutions = 0)
  10464  6482    -5360.6653    51                 115689.7427   256653         
  12366  7684    infeasible                       115689.7427   343061         
  14497  8780    -1378.1561    57                 115688.9008   406895         
  16548  9782    infeasible                       114857.8938   469215         
  18698 11115   -10884.1076    60                 114755.7437   566694         
  20929 12280  -102218.2966    46                 114166.2401   646454         
  23083 14182    infeasible                       112151.9238   779641         
  25139 14849  -136037.4330    47                 111074.3031   846437         
  27473 16189  -664883.5192    75                 109761.3145   975844         
  29943 16693    -8954.9368    42                  84855.3473  1021932         
Elapsed time = 69.59 sec. (14471.43 ticks, tree = 235.24 MB, solutions = 0)
  32323 18282  -151694.1600    60                  84855.3473  1105622         
  34733 19775  -276048.1407   135                  84855.3473  1168545         
  37152 22025   -12585.1143    64                  84855.3473  1260449         
  39553 23181   -13349.5568    66                  84855.3473  1309786         
  41080 23949    infeasible                        84855.3473  1345683         
* 41180+17193                         3275.3307     3275.3307             0.00%
  41180 17192        cutoff           3275.3307     3275.3307  1439639    0.00%

Flow cuts applied:  23

Root node processing (before b&c):
  Real time             =    2.67 sec. (1813.69 ticks)
Parallel b&c, 32 threads:
  Real time             =   88.77 sec. (19065.32 ticks)
  Sync time (average)   =    0.60 sec.
  Wait time (average)   =    0.00 sec.
                          ------------
Total (root+branch&cut) =   91.44 sec. (20879.01 ticks)

Solution pool: 1 solution saved.

MIP - Integer optimal solution:  Objective =  3.2753306912e+03
Solution time =   91.44 sec.  Iterations = 1439639  Nodes = 41180
Deterministic time = 20879.16 ticks  (228.34 ticks/sec)

CPLEX> Incumbent solution written to file 'C:\Users\llavin\Desktop\test826\logs\tmpbzwowqcl.cplex.sol'.
CPLEX> Exporting results... 
